cost: 918.07
Route 1:           0    1   31    7    4    0
Route 2:           0   15    8   39   23    0
Route 3:           0   28   13   10   49   26   46   42    0
Route 4:           0   33   38   34   17   12    0
Route 5:           0   35   21   48   32   22    9    0
Route 6:           0   45   14   30   24    0
Route 7:           0   37   16   47    6   29   40   18    0
Route 8:           0   41   36    5   44   20   25    0
Route 9:           0   50    2   19   11    3   27   43    0
